13
1 5
2 6
3 2
4 9
5 4
6 8
7 6
8 1
9 9
10 8
11 3
12 9
38
0 1 16
1 0 16
0 2 70
2 0 70
0 3 84
3 0 84
0 4 62
4 0 62
0 5 25
5 0 25
0 6 10
6 0 10
0 7 94
7 0 94
0 8 20
8 0 20
0 9 50
9 0 50
0 10 94
10 0 94
0 11 25
11 0 25
0 12 36
12 0 36
2 8 97
2 9 14
3 7 48
3 9 77
4 5 54
4 7 70
5 7 48
5 11 91
5 12 30
6 7 79
6 8 69
6 10 97
6 11 13
7 11 49
